% Auto-generated by scripts/generate_dzn.py
% problem_type   = regex
% instance       = regex_6
% source_json    = instances_json/2_high_blowup/regex_6.json
% blowup         = 15.1
% representation = DFA

mode = 0;

var_count = 16;
Q = 151;
S = 3;
q0 = 1;
F = {87, 88, 89, 90, 91, 92, 93, 94, 95, 96, 97, 98, 99, 100, 101, 102, 103, 104, 105, 106, 107, 108, 109, 110, 111, 112, 113, 114, 115, 116, 117, 118, 119, 120, 121, 122, 123, 124, 125, 126, 127, 128, 129, 130, 131, 132, 133, 134, 135, 136, 137, 138, 139, 140, 141, 142, 143, 144, 145, 146, 147, 148, 149, 150, 151};
d_dfa = array2d(1..151, 1..3, [
  2, 1, 1,
  3, 1, 1,
  5, 4, 4,
  7, 6, 6,
  9, 8, 8,
  11, 10, 10,
  12, 10, 10,
  14, 13, 13,
  16, 15, 15,
  18, 17, 17,
  19, 17, 17,
  21, 20, 20,
  23, 22, 22,
  24, 22, 22,
  26, 25, 25,
  28, 27, 27,
  30, 29, 29,
  31, 29, 29,
  33, 32, 32,
  35, 34, 34,
  37, 36, 36,
  39, 38, 38,
  40, 38, 38,
  42, 41, 41,
  44, 43, 43,
  45, 43, 43,
  47, 46, 46,
  49, 48, 48,
  51, 50, 50,
  52, 50, 50,
  54, 53, 53,
  56, 55, 55,
  58, 57, 57,
  60, 59, 59,
  61, 59, 59,
  63, 62, 62,
  65, 64, 64,
  67, 66, 66,
  68, 66, 66,
  70, 69, 69,
  72, 71, 71,
  74, 73, 73,
  76, 75, 75,
  77, 75, 75,
  79, 78, 78,
  81, 80, 80,
  82, 80, 80,
  84, 83, 83,
  86, 85, 85,
  88, 87, 87,
  89, 87, 87,
  91, 90, 90,
  93, 92, 92,
  95, 94, 94,
  97, 96, 96,
  98, 96, 96,
  100, 99, 99,
  102, 101, 101,
  104, 103, 103,
  105, 103, 103,
  107, 106, 106,
  109, 108, 108,
  110, 108, 108,
  112, 111, 111,
  114, 113, 113,
  116, 115, 115,
  117, 115, 115,
  119, 118, 118,
  121, 120, 120,
  123, 122, 122,
  125, 124, 124,
  126, 124, 124,
  128, 127, 127,
  130, 129, 129,
  132, 131, 131,
  133, 131, 131,
  135, 134, 134,
  137, 136, 136,
  139, 138, 138,
  141, 140, 140,
  142, 140, 140,
  144, 143, 143,
  146, 145, 145,
  147, 145, 145,
  149, 148, 148,
  151, 150, 150,
  2, 1, 1,
  3, 1, 1,
  5, 4, 4,
  7, 6, 6,
  9, 8, 8,
  11, 10, 10,
  12, 10, 10,
  14, 13, 13,
  16, 15, 15,
  18, 17, 17,
  19, 17, 17,
  21, 20, 20,
  23, 22, 22,
  24, 22, 22,
  26, 25, 25,
  28, 27, 27,
  30, 29, 29,
  31, 29, 29,
  33, 32, 32,
  35, 34, 34,
  37, 36, 36,
  39, 38, 38,
  40, 38, 38,
  42, 41, 41,
  44, 43, 43,
  45, 43, 43,
  47, 46, 46,
  49, 48, 48,
  88, 87, 87,
  89, 87, 87,
  91, 90, 90,
  93, 92, 92,
  95, 94, 94,
  97, 96, 96,
  98, 96, 96,
  100, 99, 99,
  102, 101, 101,
  104, 103, 103,
  105, 103, 103,
  107, 106, 106,
  109, 108, 108,
  110, 108, 108,
  112, 111, 111,
  114, 113, 113,
  116, 115, 115,
  117, 115, 115,
  119, 118, 118,
  121, 120, 120,
  123, 122, 122,
  125, 124, 124,
  126, 124, 124,
  128, 127, 127,
  130, 129, 129,
  132, 131, 131,
  133, 131, 131,
  135, 134, 134,
  137, 136, 136,
  139, 138, 138,
  141, 140, 140,
  142, 140, 140,
  144, 143, 143,
  146, 145, 145,
  147, 145, 145,
  149, 148, 148,
  151, 150, 150
]);
d_nfa = array2d(1..151, 1..3, [
  {}, {}, {},
  {}, {}, {},
  {}, {}, {},
  {}, {}, {},
  {}, {}, {},
  {}, {}, {},
  {}, {}, {},
  {}, {}, {},
  {}, {}, {},
  {}, {}, {},
  {}, {}, {},
  {}, {}, {},
  {}, {}, {},
  {}, {}, {},
  {}, {}, {},
  {}, {}, {},
  {}, {}, {},
  {}, {}, {},
  {}, {}, {},
  {}, {}, {},
  {}, {}, {},
  {}, {}, {},
  {}, {}, {},
  {}, {}, {},
  {}, {}, {},
  {}, {}, {},
  {}, {}, {},
  {}, {}, {},
  {}, {}, {},
  {}, {}, {},
  {}, {}, {},
  {}, {}, {},
  {}, {}, {},
  {}, {}, {},
  {}, {}, {},
  {}, {}, {},
  {}, {}, {},
  {}, {}, {},
  {}, {}, {},
  {}, {}, {},
  {}, {}, {},
  {}, {}, {},
  {}, {}, {},
  {}, {}, {},
  {}, {}, {},
  {}, {}, {},
  {}, {}, {},
  {}, {}, {},
  {}, {}, {},
  {}, {}, {},
  {}, {}, {},
  {}, {}, {},
  {}, {}, {},
  {}, {}, {},
  {}, {}, {},
  {}, {}, {},
  {}, {}, {},
  {}, {}, {},
  {}, {}, {},
  {}, {}, {},
  {}, {}, {},
  {}, {}, {},
  {}, {}, {},
  {}, {}, {},
  {}, {}, {},
  {}, {}, {},
  {}, {}, {},
  {}, {}, {},
  {}, {}, {},
  {}, {}, {},
  {}, {}, {},
  {}, {}, {},
  {}, {}, {},
  {}, {}, {},
  {}, {}, {},
  {}, {}, {},
  {}, {}, {},
  {}, {}, {},
  {}, {}, {},
  {}, {}, {},
  {}, {}, {},
  {}, {}, {},
  {}, {}, {},
  {}, {}, {},
  {}, {}, {},
  {}, {}, {},
  {}, {}, {},
  {}, {}, {},
  {}, {}, {},
  {}, {}, {},
  {}, {}, {},
  {}, {}, {},
  {}, {}, {},
  {}, {}, {},
  {}, {}, {},
  {}, {}, {},
  {}, {}, {},
  {}, {}, {},
  {}, {}, {},
  {}, {}, {},
  {}, {}, {},
  {}, {}, {},
  {}, {}, {},
  {}, {}, {},
  {}, {}, {},
  {}, {}, {},
  {}, {}, {},
  {}, {}, {},
  {}, {}, {},
  {}, {}, {},
  {}, {}, {},
  {}, {}, {},
  {}, {}, {},
  {}, {}, {},
  {}, {}, {},
  {}, {}, {},
  {}, {}, {},
  {}, {}, {},
  {}, {}, {},
  {}, {}, {},
  {}, {}, {},
  {}, {}, {},
  {}, {}, {},
  {}, {}, {},
  {}, {}, {},
  {}, {}, {},
  {}, {}, {},
  {}, {}, {},
  {}, {}, {},
  {}, {}, {},
  {}, {}, {},
  {}, {}, {},
  {}, {}, {},
  {}, {}, {},
  {}, {}, {},
  {}, {}, {},
  {}, {}, {},
  {}, {}, {},
  {}, {}, {},
  {}, {}, {},
  {}, {}, {},
  {}, {}, {},
  {}, {}, {},
  {}, {}, {},
  {}, {}, {},
  {}, {}, {},
  {}, {}, {},
  {}, {}, {},
  {}, {}, {},
  {}, {}, {},
  {}, {}, {}
]);
